12 24 9 10
1 6 11 12 10 5 18 15 18 1 19 17 15 18 4 9 2 17 8 20 12 10 20 7 
3.31 2.99 7.71 0.43 0.03 2.03 4.34 3.31 3.15 0.31 7.68 4.39 7.79 2.75 0.33 3.22 5.29 0.39 0.57 4.45 1.74 3.41 1.21 2.37 
7.28 3.05 4.79 2.43 6.16 1.3 1.35 2.48 6.56 7.02 3.52 4.59 3.84 4.33 2.31 3.4 8 5.42 6.44 0.64 3.68 2.85 2.86 0.65 
4.29 4.2 6.04 7.88 5.02 1.29 7.62 6.06 5.26 0.19 0.09 7.87 0.31 7.07 7.65 4.84 0.13 0.18 2.85 6.94 0.22 4.07 2.03 6.84 
3.45 4.24 0.8 1.52 4.61 1.09 6.82 3.22 1.29 2.87 3.01 5.46 6.49 1.73 1.66 1.54 6.87 3.61 7.05 1.4 0.49 5.93 6.12 7.73 
0.85 3.18 3.97 4.54 4.09 2.63 4.07 7.58 7.19 0.71 2.96 3.52 1.94 2.07 2.03 6.75 6.17 6.34 3.36 0.51 6.99 7.55 2.83 7.81 
7.91 3.63 3.31 2.26 2.51 0.11 7.69 6.69 2.21 5.92 1.26 4.55 5.38 2.53 4.65 7.32 4.62 7.18 6.3 4.37 7.9 6.41 2.28 3.87 
2.97 1.86 3.69 3.41 1.99 5.35 1.79 0.98 3.33 7.5 6.75 2.82 0.56 7.01 5.83 6.24 1.31 0.79 6.47 1.32 5.96 4.52 2.1 6.07 
7.81 1.97 2.23 5.17 5.55 4.39 1.55 3.47 0.47 2.18 5.82 1.75 6.31 5.62 7.84 0.58 6.65 1.6 3.86 5.33 7.5 6.28 7.19 0.92 
1.16 6.41 5.76 3.86 0.61 7.24 5.74 1.74 4.33 3.44 6.42 3.9 6.26 5.37 4.57 1.02 4.58 2.79 5.77 6.44 0.14 1.24 2.97 0.47 
4 4 4 4 4 4 4 4 4 4 4 4 4 4 4 4 4 4 4 4 4 4 4 4 
0.71 6.32 3.41 2.8 1.73 7.83 7.4 5.75 2.71 1.99 2.18 3.17 1.67 3.69 0.31 7.4 3.25 7.25 3.42 7.27 6.66 1.76 4.19 4.58 
3.24 2.81 3.7 5.07 5.51 2.18 2.71 3.25 3.22 3.08 3.7 7.39 1.74 7.52 7.12 2.84 4.25 7.05 1.84 4.12 7.61 6.45 7.42 1.16 
1 1 1 1 1 1 1 1 1 1 1 1 1 1 1 1 1 1 1 1 1 1 1 1 
1 1 1 1 1 1 1 1 1 1 1 1 1 1 1 1 1 1 1 1 1 1 1 1 
1 1 1 1 1 1 1 1 1 1 1 1 1 1 1 1 1 1 1 1 1 1 1 1 
1 1 1 1 1 1 1 1 1 1 1 1 1 1 1 1 1 1 1 1 1 1 1 1 
1 1 1 1 1 1 1 1 1 1 1 1 1 1 1 1 1 1 1 1 1 1 1 1 
1 1 1 1 1 1 1 1 1 1 1 1 1 1 1 1 1 1 1 1 1 1 1 1 
1 1 1 1 1 1 1 1 1 1 1 1 1 1 1 1 1 1 1 1 1 1 1 1 
1 1 1 1 1 1 1 1 1 1 1 1 1 1 1 1 1 1 1 1 1 1 1 1 
1 1 1 1 1 1 1 1 1 1 1 1 1 1 1 1 1 1 1 1 1 1 1 1 
1 1 1 1 1 1 1 1 1 1 1 1 1 1 1 1 1 1 1 1 1 1 1 1 
1 1 1 1 1 1 1 1 1 1 1 1 1 1 1 1 1 1 1 1 1 1 1 1 
1 1 1 1 1 1 1 1 1 1 1 1 1 1 1 1 1 1 1 1 1 1 1 1 
0.01 0.01 0.01 0.01 0.01 0.01 0.01 0.01 0.01 0.01 0.01 0.01 0.01 0.01 0.01 0.01 0.01 0.01 0.01 0.01 0.01 0.01 0.01 0.01 
0.02 0.02 0.02 0.02 0.02 0.02 0.02 0.02 0.02 0.02 0.02 0.02 0.02 0.02 0.02 0.02 0.02 0.02 0.02 0.02 0.02 0.02 0.02 0.02 
0.03 0.03 0.03 0.03 0.03 0.03 0.03 0.03 0.03 0.03 0.03 0.03 0.03 0.03 0.03 0.03 0.03 0.03 0.03 0.03 0.03 0.03 0.03 0.03 
0.04 0.04 0.04 0.04 0.04 0.04 0.04 0.04 0.04 0.04 0.04 0.04 0.04 0.04 0.04 0.04 0.04 0.04 0.04 0.04 0.04 0.04 0.04 0.04 
0.05 0.05 0.05 0.05 0.05 0.05 0.05 0.05 0.05 0.05 0.05 0.05 0.05 0.05 0.05 0.05 0.05 0.05 0.05 0.05 0.05 0.05 0.05 0.05 
0.06 0.06 0.06 0.06 0.06 0.06 0.06 0.06 0.06 0.06 0.06 0.06 0.06 0.06 0.06 0.06 0.06 0.06 0.06 0.06 0.06 0.06 0.06 0.06 
0.07 0.07 0.07 0.07 0.07 0.07 0.07 0.07 0.07 0.07 0.07 0.07 0.07 0.07 0.07 0.07 0.07 0.07 0.07 0.07 0.07 0.07 0.07 0.07 
0.08 0.08 0.08 0.08 0.08 0.08 0.08 0.08 0.08 0.08 0.08 0.08 0.08 0.08 0.08 0.08 0.08 0.08 0.08 0.08 0.08 0.08 0.08 0.08 
0.09 0.09 0.09 0.09 0.09 0.09 0.09 0.09 0.09 0.09 0.09 0.09 0.09 0.09 0.09 0.09 0.09 0.09 0.09 0.09 0.09 0.09 0.09 0.09 
0.1 0.1 0.1 0.1 0.1 0.1 0.1 0.1 0.1 0.1 0.1 0.1 0.1 0.1 0.1 0.1 0.1 0.1 0.1 0.1 0.1 0.1 0.1 0.1 
0.5 0.5 0.5 0.5 0.5 0.5 0.5 0.5 0.5 0.5 0.5 0.5 0.5 0.5 0.5 0.5 0.5 0.5 0.5 0.5 0.5 0.5 0.5 0.5 
1 1 1 1 1 1 1 1 1 1 1 1 1 1 1 1 1 1 1 1 1 1 1 1 
